p edge 59 256
e 1 2
e 1 3
e 1 7
e 1 9
e 1 10
e 1 27
e 2 3
e 2 7
e 2 9
e 2 10
e 2 11
e 3 7
e 3 10
e 3 11
e 3 15
e 4 5
e 4 6
e 4 8
e 4 12
e 4 13
e 4 20
e 5 6
e 5 8
e 5 12
e 5 13
e 5 14
e 6 8
e 6 13
e 6 14
e 6 30
e 7 9
e 7 10
e 7 11
e 7 27
e 8 12
e 8 13
e 8 14
e 8 30
e 9 10
e 9 11
e 9 27
e 9 28
e 9 31
e 9 39
e 10 11
e 10 15
e 10 27
e 11 15
e 11 16
e 11 34
e 12 13
e 12 14
e 12 19
e 12 20
e 12 26
e 13 14
e 13 20
e 13 30
e 14 29
e 14 30
e 14 32
e 14 42
e 15 16
e 15 17
e 15 21
e 15 28
e 15 34
e 15 35
e 16 17
e 16 18
e 16 21
e 16 23
e 16 34
e 16 35
e 17 18
e 17 19
e 17 21
e 17 22
e 17 23
e 17 24
e 17 35
e 18 19
e 18 20
e 18 21
e 18 22
e 18 23
e 18 24
e 18 25
e 18 36
e 19 20
e 19 22
e 19 24
e 19 25
e 19 26
e 20 22
e 20 25
e 20 26
e 20 29
e 21 23
e 21 24
e 21 34
e 21 35
e 22 23
e 22 24
e 22 25
e 22 26
e 22 36
e 23 24
e 23 25
e 23 34
e 23 35
e 23 36
e 24 25
e 24 26
e 24 35
e 24 36
e 24 37
e 24 50
e 24 51
e 24 59
e 25 26
e 25 29
e 25 36
e 26 29
e 26 30
e 26 32
e 26 38
e 27 28
e 27 31
e 27 33
e 27 34
e 27 39
e 27 40
e 27 44
e 28 31
e 28 33
e 28 34
e 28 35
e 28 39
e 28 40
e 28 58
e 29 30
e 29 32
e 29 37
e 29 38
e 29 41
e 29 42
e 30 32
e 30 38
e 30 41
e 30 42
e 30 55
e 31 33
e 31 34
e 31 39
e 31 40
e 31 44
e 31 45
e 32 38
e 32 41
e 32 42
e 32 53
e 32 55
e 33 34
e 33 39
e 33 40
e 33 45
e 33 47
e 33 48
e 33 58
e 33 59
e 34 35
e 36 37
e 36 38
e 36 48
e 36 49
e 36 50
e 36 51
e 36 52
e 36 58
e 36 59
e 37 38
e 37 41
e 37 50
e 37 51
e 37 52
e 37 53
e 37 59
e 38 41
e 38 42
e 38 51
e 38 52
e 38 53
e 39 40
e 39 43
e 39 44
e 39 45
e 40 44
e 40 45
e 40 46
e 40 47
e 40 58
e 41 42
e 41 52
e 41 53
e 41 54
e 41 55
e 42 53
e 42 55
e 42 56
e 43 44
e 43 45
e 44 45
e 44 46
e 44 47
e 45 46
e 45 47
e 45 48
e 45 49
e 45 58
e 46 47
e 47 48
e 47 49
e 47 50
e 47 57
e 47 58
e 47 59
e 48 49
e 48 50
e 48 57
e 48 58
e 48 59
e 49 50
e 49 51
e 49 52
e 49 57
e 49 58
e 49 59
e 50 51
e 50 52
e 50 53
e 50 57
e 50 59
e 51 52
e 51 53
e 51 59
e 52 53
e 52 54
e 52 55
e 53 54
e 53 55
e 53 56
e 54 55
e 55 56
e 57 59
e 58 59
